368,305
468,298
975,555
1051,526
914,639
576,551
533,429
521,325
554,279
727,264
766,379
708,353
817,139
749,273
776,219
708,353
576,551
545,673
399,794
448,639
196,249
444,369
521,325
561,36
999,88
740,397
690,347
366,177
178,485
368,305
464,-21
681,-134
918,369
898,833
1194,572
914,639
737,761
545,673
448,639
364,842
761,446
740,397
918,369
690,347
554,279
